44 55 58 32 45 37 52 26 33 20 21 65 56 14 74 57 25 64 67 59 15 19 17 1 38 18 35 54 75 7 49 63 34 27 42 31 10 22 9 12 5 23 0 2 13 8 51 41 69 40 43 36 62 30 60 6 4 53 61 29 3 46 72 66 28 76 70 50 16 24 11 71 48 47 68 73 39 